NAME : local_11
TYPE : ATSP
DIMENSION : 5
EDGE_WEIGHT_TYPE : EXPLICIT
EDGE_WEIGHT_FORMAT : FULL_MATRIX
EDGE_WEIGHT_SECTION
0 10000000 419 794 318 
0 0 1076 954 10000000 
0 1145 0 1088 696 
0 914 1059 0 525 
0 10000000 10000000 10000000 0 
EOF